appendix-picat-trial/target_713.param
letting target be 713
